(set-logic QF_NRA)
(set-info :source |Benchmarks generated from hycomp (https://es-static.fbk.eu/tools/hycomp/). BMC instances of non-linear hybrid automata taken from: Alessandro Cimatti, Sergio Mover, Stefano Tonetta, A quantifier-free SMT encoding of non-linear hybrid automata, FMCAD 2012 and Alessandro Cimatti, Sergio Mover, Stefano Tonetta, Quantier-free encoding of invariants for Hybrid Systems, Formal Methods in System Design. This instance solves a BMC problem of depth 1 and uses the quantifier free encoding with lemmas encoding. Contacts: Sergio Mover (mover@fbk.eu), Stefano Tonetta (tonettas@fbk.eu), Alessandro Cimatti (cimatti@fbk.eu).|)
(set-info :smt-lib-version 2.0)
(set-info :category "industrial")
(set-info :status unsat)
;; MathSAT API call trace
;; generated on Mon Mar 19 10:38:36 2012
(declare-fun b.x__AT0 () Real)
(declare-fun b.speed_y__AT1 () Real)
(declare-fun b.delta__AT1 () Real)
(declare-fun b.bool_atom__AT0 () Bool)
(declare-fun b.y__AT0 () Real)
(declare-fun b.EVENT.1__AT1 () Bool)
(declare-fun b.EVENT.0__AT1 () Bool)
(declare-fun b.counter.0__AT0 () Bool)
(declare-fun b.delta__AT0 () Real)
(declare-fun b.counter.1__AT0 () Bool)
(declare-fun b.y__AT1 () Real)
(declare-fun b.EVENT.0__AT0 () Bool)
(declare-fun b.speed_y__AT0 () Real)
(declare-fun b.event_is_timed__AT0 () Bool)
(declare-fun b.counter.3__AT0 () Bool)
(declare-fun b.speed_x__AT1 () Real)
(declare-fun b.time__AT1 () Real)
(declare-fun b.x__AT1 () Real)
(declare-fun b.event_is_timed__AT1 () Bool)
(declare-fun b.counter.0__AT1 () Bool)
(declare-fun b.EVENT.1__AT0 () Bool)
(declare-fun b.speed_loss__AT0 () Real)
(declare-fun b.counter.1__AT1 () Bool)
(declare-fun b.speed_x__AT0 () Real)
(declare-fun b.counter.2__AT1 () Bool)
(declare-fun b.time__AT0 () Real)
(declare-fun b.counter.2__AT0 () Bool)
(declare-fun b.counter.3__AT1 () Bool)
(declare-fun b.bool_atom__AT1 () Bool)
(assert (let ((.def_584 (* (- (/ 49 10)) b.speed_y__AT1)))
(let ((.def_612 (* 3.0 .def_584)))
(let ((.def_763 (* (- 1.0) .def_612)))
(let ((.def_784 (* 2.0 .def_763)))
(let ((.def_823 (* (- 1.0) .def_784)))
(let ((.def_824 (* b.delta__AT1 .def_823)))
(let ((.def_825 (* (- 50.0) .def_824)))
(let ((.def_579 (* b.delta__AT1 b.delta__AT1)))
(let ((.def_668 (* (- 7203.0) .def_579)))
(let ((.def_826 (+ .def_668 .def_825)))
(let ((.def_458 (* b.speed_y__AT1 b.speed_y__AT1)))
(let ((.def_670 (* (- 50.0) .def_458)))
(let ((.def_827 (+ .def_670 .def_826)))
(let ((.def_672 (* 490.0 b.y__AT1)))
(let ((.def_828 (+ .def_672 .def_827)))
(let ((.def_831 (<= 0.0 .def_828)))
(let ((.def_838 (not .def_831)))
(let ((.def_679 (* (- 5.0) .def_458)))
(let ((.def_680 (* 49.0 b.y__AT1)))
(let ((.def_682 (+ .def_680 .def_679)))
(let ((.def_693 (<= 0.0 .def_682)))
(let ((.def_839 (or .def_693 .def_838)))
(let ((.def_829 (<= .def_828 0.0 )))
(let ((.def_683 (<= .def_682 0.0 )))
(let ((.def_684 (not .def_683)))
(let ((.def_837 (or .def_684 .def_829)))
(let ((.def_840 (and .def_837 .def_839)))
(let ((.def_723 (<= 0.0 b.speed_y__AT1)))
(let ((.def_724 (not .def_723)))
(let ((.def_709 (* (- 49.0) b.delta__AT1)))
(let ((.def_710 (* 5.0 b.speed_y__AT1)))
(let ((.def_712 (+ .def_710 .def_709)))
(let ((.def_721 (<= 0.0 .def_712)))
(let ((.def_722 (not .def_721)))
(let ((.def_725 (or .def_722 .def_724)))
(let ((.def_726 (not .def_725)))
(let ((.def_841 (or .def_726 .def_840)))
(let ((.def_833 (not .def_829)))
(let ((.def_834 (or .def_683 .def_833)))
(let ((.def_694 (not .def_693)))
(let ((.def_832 (or .def_694 .def_831)))
(let ((.def_835 (and .def_832 .def_834)))
(let ((.def_713 (<= .def_712 0.0 )))
(let ((.def_714 (not .def_713)))
(let ((.def_707 (<= b.speed_y__AT1 0.0 )))
(let ((.def_708 (not .def_707)))
(let ((.def_715 (or .def_708 .def_714)))
(let ((.def_716 (not .def_715)))
(let ((.def_836 (or .def_716 .def_835)))
(let ((.def_842 (and .def_836 .def_841)))
(let ((.def_830 (and .def_683 .def_829)))
(let ((.def_843 (and .def_830 .def_842)))
(let ((.def_735 (and .def_721 .def_723)))
(let ((.def_732 (or .def_722 .def_723)))
(let ((.def_731 (or .def_708 .def_713)))
(let ((.def_733 (and .def_731 .def_732)))
(let ((.def_736 (and .def_733 .def_735)))
(let ((.def_730 (and .def_707 .def_713)))
(let ((.def_734 (and .def_730 .def_733)))
(let ((.def_737 (or .def_734 .def_736)))
(let ((.def_844 (and .def_737 .def_843)))
(let ((.def_785 (* b.delta__AT1 .def_784)))
(let ((.def_786 (* 50.0 .def_785)))
(let ((.def_787 (+ .def_668 .def_786)))
(let ((.def_788 (+ .def_670 .def_787)))
(let ((.def_789 (+ .def_672 .def_788)))
(let ((.def_800 (<= .def_789 0.0 )))
(let ((.def_801 (not .def_800)))
(let ((.def_817 (or .def_683 .def_801)))
(let ((.def_790 (<= 0.0 .def_789)))
(let ((.def_816 (or .def_694 .def_790)))
(let ((.def_818 (and .def_816 .def_817)))
(let ((.def_819 (or .def_716 .def_818)))
(let ((.def_791 (not .def_790)))
(let ((.def_813 (or .def_693 .def_791)))
(let ((.def_812 (or .def_684 .def_800)))
(let ((.def_814 (and .def_812 .def_813)))
(let ((.def_815 (or .def_726 .def_814)))
(let ((.def_820 (and .def_815 .def_819)))
(let ((.def_811 (and .def_693 .def_790)))
(let ((.def_821 (and .def_811 .def_820)))
(let ((.def_822 (and .def_737 .def_821)))
(let ((.def_845 (or .def_822 .def_844)))
(let ((.def_591 (* (- (/ 49 10)) b.y__AT1)))
(let ((.def_619 (* 2.0 .def_591)))
(let ((.def_771 (* (- 1.0) .def_619)))
(let ((.def_772 (* b.delta__AT1 .def_771)))
(let ((.def_773 (* (- 50.0) .def_772)))
(let ((.def_615 (* 2.0 .def_458)))
(let ((.def_767 (* (- 1.0) .def_615)))
(let ((.def_768 (* b.delta__AT1 .def_767)))
(let ((.def_769 (* (- 25.0) .def_768)))
(let ((.def_777 (+ .def_769 .def_773)))
(let ((.def_764 (* .def_579 .def_763)))
(let ((.def_765 (* (- 50.0) .def_764)))
(let ((.def_778 (+ .def_765 .def_777)))
(let ((.def_595 (* b.y__AT1 b.speed_y__AT1)))
(let ((.def_625 (* 50.0 .def_595)))
(let ((.def_779 (+ .def_625 .def_778)))
(let ((.def_580 (* b.delta__AT1 .def_579)))
(let ((.def_623 (* 2401.0 .def_580)))
(let ((.def_780 (+ .def_623 .def_779)))
(let ((.def_627 (* 25.0 b.speed_x__AT1)))
(let ((.def_781 (+ .def_627 .def_780)))
(let ((.def_794 (<= 0.0 .def_781)))
(let ((.def_805 (not .def_794)))
(let ((.def_636 (* 2.0 .def_595)))
(let ((.def_637 (+ b.speed_x__AT1 .def_636)))
(let ((.def_638 (<= 0.0 .def_637)))
(let ((.def_806 (or .def_638 .def_805)))
(let ((.def_782 (<= .def_781 0.0 )))
(let ((.def_652 (<= .def_637 0.0 )))
(let ((.def_653 (not .def_652)))
(let ((.def_804 (or .def_653 .def_782)))
(let ((.def_807 (and .def_804 .def_806)))
(let ((.def_802 (or .def_684 .def_801)))
(let ((.def_803 (not .def_802)))
(let ((.def_808 (or .def_803 .def_807)))
(let ((.def_796 (not .def_782)))
(let ((.def_797 (or .def_652 .def_796)))
(let ((.def_639 (not .def_638)))
(let ((.def_795 (or .def_639 .def_794)))
(let ((.def_798 (and .def_795 .def_797)))
(let ((.def_792 (or .def_694 .def_791)))
(let ((.def_793 (not .def_792)))
(let ((.def_799 (or .def_793 .def_798)))
(let ((.def_809 (and .def_799 .def_808)))
(let ((.def_783 (and .def_652 .def_782)))
(let ((.def_810 (and .def_783 .def_809)))
(let ((.def_846 (and .def_810 .def_845)))
(let ((.def_665 (* 2.0 .def_612)))
(let ((.def_739 (* (- 1.0) .def_665)))
(let ((.def_740 (* b.delta__AT1 .def_739)))
(let ((.def_741 (* 50.0 .def_740)))
(let ((.def_742 (+ .def_668 .def_741)))
(let ((.def_743 (+ .def_670 .def_742)))
(let ((.def_744 (+ .def_672 .def_743)))
(let ((.def_747 (<= .def_744 0.0 )))
(let ((.def_754 (not .def_747)))
(let ((.def_755 (or .def_683 .def_754)))
(let ((.def_745 (<= 0.0 .def_744)))
(let ((.def_753 (or .def_694 .def_745)))
(let ((.def_756 (and .def_753 .def_755)))
(let ((.def_757 (or .def_716 .def_756)))
(let ((.def_749 (not .def_745)))
(let ((.def_750 (or .def_693 .def_749)))
(let ((.def_748 (or .def_684 .def_747)))
(let ((.def_751 (and .def_748 .def_750)))
(let ((.def_752 (or .def_726 .def_751)))
(let ((.def_758 (and .def_752 .def_757)))
(let ((.def_746 (and .def_693 .def_745)))
(let ((.def_759 (and .def_746 .def_758)))
(let ((.def_760 (and .def_737 .def_759)))
(let ((.def_666 (* b.delta__AT1 .def_665)))
(let ((.def_667 (* (- 50.0) .def_666)))
(let ((.def_674 (+ .def_668 .def_667)))
(let ((.def_675 (+ .def_670 .def_674)))
(let ((.def_676 (+ .def_672 .def_675)))
(let ((.def_691 (<= 0.0 .def_676)))
(let ((.def_692 (not .def_691)))
(let ((.def_719 (or .def_692 .def_693)))
(let ((.def_677 (<= .def_676 0.0 )))
(let ((.def_718 (or .def_677 .def_684)))
(let ((.def_720 (and .def_718 .def_719)))
(let ((.def_727 (or .def_720 .def_726)))
(let ((.def_678 (not .def_677)))
(let ((.def_705 (or .def_678 .def_683)))
(let ((.def_704 (or .def_691 .def_694)))
(let ((.def_706 (and .def_704 .def_705)))
(let ((.def_717 (or .def_706 .def_716)))
(let ((.def_728 (and .def_717 .def_727)))
(let ((.def_703 (and .def_677 .def_683)))
(let ((.def_729 (and .def_703 .def_728)))
(let ((.def_738 (and .def_729 .def_737)))
(let ((.def_761 (or .def_738 .def_760)))
(let ((.def_620 (* b.delta__AT1 .def_619)))
(let ((.def_621 (* 50.0 .def_620)))
(let ((.def_616 (* b.delta__AT1 .def_615)))
(let ((.def_617 (* 25.0 .def_616)))
(let ((.def_629 (+ .def_617 .def_621)))
(let ((.def_613 (* .def_579 .def_612)))
(let ((.def_614 (* 50.0 .def_613)))
(let ((.def_630 (+ .def_614 .def_629)))
(let ((.def_631 (+ .def_625 .def_630)))
(let ((.def_632 (+ .def_623 .def_631)))
(let ((.def_633 (+ .def_627 .def_632)))
(let ((.def_650 (<= .def_633 0.0 )))
(let ((.def_651 (not .def_650)))
(let ((.def_698 (or .def_651 .def_652)))
(let ((.def_634 (<= 0.0 .def_633)))
(let ((.def_697 (or .def_634 .def_639)))
(let ((.def_699 (and .def_697 .def_698)))
(let ((.def_695 (or .def_692 .def_694)))
(let ((.def_696 (not .def_695)))
(let ((.def_700 (or .def_696 .def_699)))
(let ((.def_635 (not .def_634)))
(let ((.def_688 (or .def_635 .def_638)))
(let ((.def_687 (or .def_650 .def_653)))
(let ((.def_689 (and .def_687 .def_688)))
(let ((.def_685 (or .def_678 .def_684)))
(let ((.def_686 (not .def_685)))
(let ((.def_690 (or .def_686 .def_689)))
(let ((.def_701 (and .def_690 .def_700)))
(let ((.def_664 (and .def_634 .def_638)))
(let ((.def_702 (and .def_664 .def_701)))
(let ((.def_762 (and .def_702 .def_761)))
(let ((.def_847 (or .def_762 .def_846)))
(let ((.def_596 (* b.delta__AT1 .def_595)))
(let ((.def_597 (* 200.0 .def_596)))
(let ((.def_592 (* .def_579 .def_591)))
(let ((.def_593 (* 200.0 .def_592)))
(let ((.def_603 (+ .def_593 .def_597)))
(let ((.def_588 (* .def_458 .def_579)))
(let ((.def_589 (* 100.0 .def_588)))
(let ((.def_604 (+ .def_589 .def_603)))
(let ((.def_585 (* .def_580 .def_584)))
(let ((.def_586 (* 200.0 .def_585)))
(let ((.def_605 (+ .def_586 .def_604)))
(let ((.def_581 (* b.delta__AT1 .def_580)))
(let ((.def_582 (* 2401.0 .def_581)))
(let ((.def_606 (+ .def_582 .def_605)))
(let ((.def_577 (* b.speed_x__AT1 b.delta__AT1)))
(let ((.def_578 (* 100.0 .def_577)))
(let ((.def_607 (+ .def_578 .def_606)))
(let ((.def_562 (* b.y__AT1 b.y__AT1)))
(let ((.def_599 (* 100.0 .def_562)))
(let ((.def_608 (+ .def_599 .def_607)))
(let ((.def_601 (* 100.0 b.x__AT1)))
(let ((.def_609 (+ .def_601 .def_608)))
(let ((.def_644 (<= .def_609 0.0 )))
(let ((.def_658 (not .def_644)))
(let ((.def_563 (+ b.x__AT1 .def_562)))
(let ((.def_642 (<= .def_563 0.0 )))
(let ((.def_659 (or .def_642 .def_658)))
(let ((.def_564 (<= 0.0 .def_563)))
(let ((.def_656 (not .def_564)))
(let ((.def_610 (<= 0.0 .def_609)))
(let ((.def_657 (or .def_610 .def_656)))
(let ((.def_660 (and .def_657 .def_659)))
(let ((.def_654 (or .def_651 .def_653)))
(let ((.def_655 (not .def_654)))
(let ((.def_661 (or .def_655 .def_660)))
(let ((.def_646 (not .def_610)))
(let ((.def_647 (or .def_564 .def_646)))
(let ((.def_643 (not .def_642)))
(let ((.def_645 (or .def_643 .def_644)))
(let ((.def_648 (and .def_645 .def_647)))
(let ((.def_640 (or .def_635 .def_639)))
(let ((.def_641 (not .def_640)))
(let ((.def_649 (or .def_641 .def_648)))
(let ((.def_662 (and .def_649 .def_661)))
(let ((.def_611 (and .def_564 .def_610)))
(let ((.def_663 (and .def_611 .def_662)))
(let ((.def_848 (and .def_663 .def_847)))
(let ((.def_73 (<= b.speed_loss__AT0 (/ 1 2))))
(let ((.def_70 (<= (/ 1 10) b.speed_loss__AT0)))
(let ((.def_74 (and .def_70 .def_73)))
(let ((.def_849 (and .def_74 .def_848)))
(let ((.def_43 (not b.counter.0__AT0)))
(let ((.def_41 (not b.counter.1__AT0)))
(let ((.def_44 (and .def_41 .def_43)))
(let ((.def_572 (or .def_44 b.counter.3__AT0)))
(let ((.def_569 (or .def_44 b.counter.2__AT0)))
(let ((.def_46 (not b.counter.2__AT0)))
(let ((.def_568 (or .def_41 .def_46)))
(let ((.def_570 (and .def_568 .def_569)))
(let ((.def_49 (not b.counter.3__AT0)))
(let ((.def_571 (or .def_49 .def_570)))
(let ((.def_573 (and .def_571 .def_572)))
(let ((.def_565 (and .def_74 .def_564)))
(let ((.def_559 (not b.EVENT.0__AT1)))
(let ((.def_557 (not b.EVENT.1__AT1)))
(let ((.def_560 (or .def_557 .def_559)))
(let ((.def_9 (not b.counter.0__AT1)))
(let ((.def_6 (not b.counter.1__AT1)))
(let ((.def_550 (or .def_6 .def_9)))
(let ((.def_554 (or b.counter.3__AT1 .def_550)))
(let ((.def_551 (or b.counter.2__AT1 .def_550)))
(let ((.def_4 (not b.counter.2__AT1)))
(let ((.def_549 (or .def_4 .def_9)))
(let ((.def_552 (and .def_549 .def_551)))
(let ((.def_14 (not b.counter.3__AT1)))
(let ((.def_553 (or .def_14 .def_552)))
(let ((.def_555 (and .def_553 .def_554)))
(let ((.def_561 (and .def_555 .def_560)))
(let ((.def_566 (and .def_561 .def_565)))
(let ((.def_544 (<= 0.0 b.delta__AT0)))
(let ((.def_62 (not b.EVENT.0__AT0)))
(let ((.def_60 (not b.EVENT.1__AT0)))
(let ((.def_382 (and .def_60 .def_62)))
(let ((.def_384 (not .def_382)))
(let ((.def_545 (or .def_384 .def_544)))
(let ((.def_546 (or b.EVENT.1__AT0 .def_545)))
(let ((.def_423 (= b.bool_atom__AT0 b.bool_atom__AT1)))
(let ((.def_418 (= b.counter.0__AT1 b.counter.0__AT0)))
(let ((.def_416 (= b.counter.1__AT1 b.counter.1__AT0)))
(let ((.def_414 (= b.counter.2__AT1 b.counter.2__AT0)))
(let ((.def_413 (= b.counter.3__AT1 b.counter.3__AT0)))
(let ((.def_415 (and .def_413 .def_414)))
(let ((.def_417 (and .def_415 .def_416)))
(let ((.def_419 (and .def_417 .def_418)))
(let ((.def_540 (and .def_419 .def_423)))
(let ((.def_541 (or .def_384 .def_540)))
(let ((.def_542 (or b.EVENT.1__AT0 .def_541)))
(let ((.def_522 (* b.speed_y__AT0 b.delta__AT0)))
(let ((.def_523 (* 10.0 .def_522)))
(let ((.def_527 (* (- 10.0) b.y__AT1)))
(let ((.def_531 (+ .def_527 .def_523)))
(let ((.def_83 (* b.delta__AT0 b.delta__AT0)))
(let ((.def_524 (* (- 49.0) .def_83)))
(let ((.def_532 (+ .def_524 .def_531)))
(let ((.def_529 (* 10.0 b.y__AT0)))
(let ((.def_533 (+ .def_529 .def_532)))
(let ((.def_534 (= .def_533 0.0 )))
(let ((.def_517 (* (- 5.0) b.speed_y__AT1)))
(let ((.def_229 (* (- 49.0) b.delta__AT0)))
(let ((.def_518 (+ .def_229 .def_517)))
(let ((.def_230 (* 5.0 b.speed_y__AT0)))
(let ((.def_519 (+ .def_230 .def_518)))
(let ((.def_520 (= .def_519 0.0 )))
(let ((.def_513 (* (- 1.0) b.x__AT1)))
(let ((.def_80 (* b.speed_x__AT0 b.delta__AT0)))
(let ((.def_514 (+ .def_80 .def_513)))
(let ((.def_515 (+ b.x__AT0 .def_514)))
(let ((.def_516 (= .def_515 0.0 )))
(let ((.def_521 (and .def_516 .def_520)))
(let ((.def_535 (and .def_521 .def_534)))
(let ((.def_408 (= b.speed_x__AT0 b.speed_x__AT1)))
(let ((.def_536 (and .def_408 .def_535)))
(let ((.def_537 (or .def_384 .def_536)))
(let ((.def_405 (= b.y__AT0 b.y__AT1)))
(let ((.def_402 (= b.x__AT0 b.x__AT1)))
(let ((.def_507 (and .def_402 .def_405)))
(let ((.def_508 (and .def_408 .def_507)))
(let ((.def_411 (= b.speed_y__AT0 b.speed_y__AT1)))
(let ((.def_509 (and .def_411 .def_508)))
(let ((.def_504 (= b.delta__AT0 0.0 )))
(let ((.def_505 (and .def_382 .def_504)))
(let ((.def_506 (not .def_505)))
(let ((.def_510 (or .def_506 .def_509)))
(let ((.def_511 (or b.EVENT.1__AT0 .def_510)))
(let ((.def_496 (and .def_408 .def_411)))
(let ((.def_497 (and .def_419 .def_496)))
(let ((.def_498 (or b.bool_atom__AT0 .def_497)))
(let ((.def_472 (or .def_9 b.counter.0__AT0)))
(let ((.def_471 (or b.counter.0__AT1 .def_43)))
(let ((.def_473 (and .def_471 .def_472)))
(let ((.def_474 (and .def_6 .def_473)))
(let ((.def_475 (or b.counter.1__AT0 .def_474)))
(let ((.def_470 (or b.counter.1__AT1 .def_41)))
(let ((.def_476 (and .def_470 .def_475)))
(let ((.def_487 (and .def_4 .def_476)))
(let ((.def_488 (or b.counter.2__AT0 .def_487)))
(let ((.def_482 (and .def_6 .def_43)))
(let ((.def_483 (or b.counter.1__AT0 .def_482)))
(let ((.def_484 (and .def_470 .def_483)))
(let ((.def_485 (and b.counter.2__AT1 .def_484)))
(let ((.def_486 (or .def_46 .def_485)))
(let ((.def_489 (and .def_486 .def_488)))
(let ((.def_490 (and b.counter.3__AT1 .def_489)))
(let ((.def_491 (or b.counter.3__AT0 .def_490)))
(let ((.def_477 (and b.counter.2__AT1 .def_476)))
(let ((.def_478 (or b.counter.2__AT0 .def_477)))
(let ((.def_466 (or b.counter.1__AT1 b.counter.1__AT0)))
(let ((.def_464 (and .def_6 b.counter.0__AT1)))
(let ((.def_465 (or .def_41 .def_464)))
(let ((.def_467 (and .def_465 .def_466)))
(let ((.def_468 (and .def_4 .def_467)))
(let ((.def_469 (or .def_46 .def_468)))
(let ((.def_479 (and .def_469 .def_478)))
(let ((.def_480 (and .def_14 .def_479)))
(let ((.def_481 (or .def_49 .def_480)))
(let ((.def_492 (and .def_481 .def_491)))
(let ((.def_453 (* b.speed_x__AT0 b.speed_x__AT0)))
(let ((.def_97 (* b.speed_y__AT0 b.speed_y__AT0)))
(let ((.def_454 (+ .def_97 .def_453)))
(let ((.def_439 (* (- 1.0) b.speed_loss__AT0)))
(let ((.def_440 (+ 1.0 .def_439)))
(let ((.def_452 (* .def_440 .def_440)))
(let ((.def_455 (* .def_452 .def_454)))
(let ((.def_456 (* (- 1.0) .def_455)))
(let ((.def_460 (+ .def_456 .def_458)))
(let ((.def_451 (* b.speed_x__AT1 b.speed_x__AT1)))
(let ((.def_461 (+ .def_451 .def_460)))
(let ((.def_462 (= .def_461 0.0 )))
(let ((.def_429 (* 2.0 b.y__AT0)))
(let ((.def_443 (* .def_429 .def_440)))
(let ((.def_444 (* b.speed_y__AT0 .def_443)))
(let ((.def_441 (* b.speed_x__AT0 .def_440)))
(let ((.def_447 (+ .def_441 .def_444)))
(let ((.def_437 (* 2.0 b.y__AT1)))
(let ((.def_438 (* b.speed_y__AT1 .def_437)))
(let ((.def_448 (+ .def_438 .def_447)))
(let ((.def_449 (+ b.speed_x__AT1 .def_448)))
(let ((.def_450 (= .def_449 0.0 )))
(let ((.def_463 (and .def_450 .def_462)))
(let ((.def_493 (and .def_463 .def_492)))
(let ((.def_436 (not b.bool_atom__AT0)))
(let ((.def_494 (or .def_436 .def_493)))
(let ((.def_430 (* b.speed_y__AT0 .def_429)))
(let ((.def_431 (+ b.speed_x__AT0 .def_430)))
(let ((.def_432 (<= 0.0 .def_431)))
(let ((.def_433 (not .def_432)))
(let ((.def_65 (* b.y__AT0 b.y__AT0)))
(let ((.def_66 (+ b.x__AT0 .def_65)))
(let ((.def_428 (= .def_66 0.0 )))
(let ((.def_434 (and .def_428 .def_433)))
(let ((.def_435 (= b.bool_atom__AT0 .def_434)))
(let ((.def_495 (and .def_435 .def_494)))
(let ((.def_499 (and .def_495 .def_498)))
(let ((.def_500 (and .def_402 .def_499)))
(let ((.def_501 (and .def_405 .def_500)))
(let ((.def_502 (or .def_382 .def_501)))
(let ((.def_503 (or b.EVENT.1__AT0 .def_502)))
(let ((.def_512 (and .def_503 .def_511)))
(let ((.def_538 (and .def_512 .def_537)))
(let ((.def_389 (= b.time__AT0 b.time__AT1)))
(let ((.def_403 (and .def_389 .def_402)))
(let ((.def_406 (and .def_403 .def_405)))
(let ((.def_409 (and .def_406 .def_408)))
(let ((.def_412 (and .def_409 .def_411)))
(let ((.def_420 (and .def_412 .def_419)))
(let ((.def_424 (and .def_420 .def_423)))
(let ((.def_425 (or .def_60 .def_424)))
(let ((.def_392 (* (- 1.0) b.time__AT1)))
(let ((.def_395 (+ b.delta__AT0 .def_392)))
(let ((.def_396 (+ b.time__AT0 .def_395)))
(let ((.def_397 (= .def_396 0.0 )))
(let ((.def_398 (or .def_384 .def_397)))
(let ((.def_399 (or b.EVENT.1__AT0 .def_398)))
(let ((.def_390 (or .def_382 .def_389)))
(let ((.def_391 (or b.EVENT.1__AT0 .def_390)))
(let ((.def_400 (and .def_391 .def_399)))
(let ((.def_426 (and .def_400 .def_425)))
(let ((.def_386 (= .def_384 b.event_is_timed__AT1)))
(let ((.def_383 (= b.event_is_timed__AT0 .def_382)))
(let ((.def_387 (and .def_383 .def_386)))
(let ((.def_427 (and .def_387 .def_426)))
(let ((.def_539 (and .def_427 .def_538)))
(let ((.def_543 (and .def_539 .def_542)))
(let ((.def_547 (and .def_543 .def_546)))
(let ((.def_548 (and .def_60 .def_547)))
(let ((.def_567 (and .def_548 .def_566)))
(let ((.def_574 (and .def_567 .def_573)))
(let ((.def_92 (* (- (/ 49 10)) b.speed_y__AT0)))
(let ((.def_123 (* 3.0 .def_92)))
(let ((.def_287 (* (- 1.0) .def_123)))
(let ((.def_309 (* 2.0 .def_287)))
(let ((.def_351 (* (- 1.0) .def_309)))
(let ((.def_352 (* b.delta__AT0 .def_351)))
(let ((.def_353 (* (- 50.0) .def_352)))
(let ((.def_186 (* (- 50.0) .def_97)))
(let ((.def_357 (+ .def_186 .def_353)))
(let ((.def_184 (* (- 7203.0) .def_83)))
(let ((.def_358 (+ .def_184 .def_357)))
(let ((.def_189 (* 490.0 b.y__AT0)))
(let ((.def_359 (+ .def_189 .def_358)))
(let ((.def_362 (<= 0.0 .def_359)))
(let ((.def_369 (not .def_362)))
(let ((.def_198 (* (- 5.0) .def_97)))
(let ((.def_199 (* 49.0 b.y__AT0)))
(let ((.def_201 (+ .def_199 .def_198)))
(let ((.def_212 (<= 0.0 .def_201)))
(let ((.def_370 (or .def_212 .def_369)))
(let ((.def_360 (<= .def_359 0.0 )))
(let ((.def_202 (<= .def_201 0.0 )))
(let ((.def_203 (not .def_202)))
(let ((.def_368 (or .def_203 .def_360)))
(let ((.def_371 (and .def_368 .def_370)))
(let ((.def_243 (<= 0.0 b.speed_y__AT0)))
(let ((.def_244 (not .def_243)))
(let ((.def_232 (+ .def_230 .def_229)))
(let ((.def_241 (<= 0.0 .def_232)))
(let ((.def_242 (not .def_241)))
(let ((.def_245 (or .def_242 .def_244)))
(let ((.def_246 (not .def_245)))
(let ((.def_372 (or .def_246 .def_371)))
(let ((.def_364 (not .def_360)))
(let ((.def_365 (or .def_202 .def_364)))
(let ((.def_213 (not .def_212)))
(let ((.def_363 (or .def_213 .def_362)))
(let ((.def_366 (and .def_363 .def_365)))
(let ((.def_233 (<= .def_232 0.0 )))
(let ((.def_234 (not .def_233)))
(let ((.def_226 (<= b.speed_y__AT0 0.0 )))
(let ((.def_227 (not .def_226)))
(let ((.def_235 (or .def_227 .def_234)))
(let ((.def_236 (not .def_235)))
(let ((.def_367 (or .def_236 .def_366)))
(let ((.def_373 (and .def_367 .def_372)))
(let ((.def_361 (and .def_202 .def_360)))
(let ((.def_374 (and .def_361 .def_373)))
(let ((.def_255 (and .def_241 .def_243)))
(let ((.def_252 (or .def_242 .def_243)))
(let ((.def_251 (or .def_227 .def_233)))
(let ((.def_253 (and .def_251 .def_252)))
(let ((.def_256 (and .def_253 .def_255)))
(let ((.def_250 (and .def_226 .def_233)))
(let ((.def_254 (and .def_250 .def_253)))
(let ((.def_257 (or .def_254 .def_256)))
(let ((.def_375 (and .def_257 .def_374)))
(let ((.def_310 (* b.delta__AT0 .def_309)))
(let ((.def_311 (* 50.0 .def_310)))
(let ((.def_315 (+ .def_186 .def_311)))
(let ((.def_316 (+ .def_184 .def_315)))
(let ((.def_317 (+ .def_189 .def_316)))
(let ((.def_328 (<= .def_317 0.0 )))
(let ((.def_329 (not .def_328)))
(let ((.def_345 (or .def_202 .def_329)))
(let ((.def_318 (<= 0.0 .def_317)))
(let ((.def_344 (or .def_213 .def_318)))
(let ((.def_346 (and .def_344 .def_345)))
(let ((.def_347 (or .def_236 .def_346)))
(let ((.def_319 (not .def_318)))
(let ((.def_341 (or .def_212 .def_319)))
(let ((.def_340 (or .def_203 .def_328)))
(let ((.def_342 (and .def_340 .def_341)))
(let ((.def_343 (or .def_246 .def_342)))
(let ((.def_348 (and .def_343 .def_347)))
(let ((.def_339 (and .def_212 .def_318)))
(let ((.def_349 (and .def_339 .def_348)))
(let ((.def_350 (and .def_257 .def_349)))
(let ((.def_376 (or .def_350 .def_375)))
(let ((.def_101 (* (- (/ 49 10)) b.y__AT0)))
(let ((.def_132 (* 2.0 .def_101)))
(let ((.def_296 (* (- 1.0) .def_132)))
(let ((.def_297 (* b.delta__AT0 .def_296)))
(let ((.def_298 (* (- 50.0) .def_297)))
(let ((.def_127 (* 2.0 .def_97)))
(let ((.def_291 (* (- 1.0) .def_127)))
(let ((.def_292 (* b.delta__AT0 .def_291)))
(let ((.def_294 (* (- 25.0) .def_292)))
(let ((.def_302 (+ .def_294 .def_298)))
(let ((.def_288 (* .def_83 .def_287)))
(let ((.def_289 (* (- 50.0) .def_288)))
(let ((.def_303 (+ .def_289 .def_302)))
(let ((.def_105 (* b.y__AT0 b.speed_y__AT0)))
(let ((.def_138 (* 50.0 .def_105)))
(let ((.def_304 (+ .def_138 .def_303)))
(let ((.def_84 (* b.delta__AT0 .def_83)))
(let ((.def_136 (* 2401.0 .def_84)))
(let ((.def_305 (+ .def_136 .def_304)))
(let ((.def_140 (* 25.0 b.speed_x__AT0)))
(let ((.def_306 (+ .def_140 .def_305)))
(let ((.def_322 (<= 0.0 .def_306)))
(let ((.def_333 (not .def_322)))
(let ((.def_149 (* 2.0 .def_105)))
(let ((.def_150 (+ b.speed_x__AT0 .def_149)))
(let ((.def_151 (<= 0.0 .def_150)))
(let ((.def_334 (or .def_151 .def_333)))
(let ((.def_307 (<= .def_306 0.0 )))
(let ((.def_165 (<= .def_150 0.0 )))
(let ((.def_166 (not .def_165)))
(let ((.def_332 (or .def_166 .def_307)))
(let ((.def_335 (and .def_332 .def_334)))
(let ((.def_330 (or .def_203 .def_329)))
(let ((.def_331 (not .def_330)))
(let ((.def_336 (or .def_331 .def_335)))
(let ((.def_324 (not .def_307)))
(let ((.def_325 (or .def_165 .def_324)))
(let ((.def_152 (not .def_151)))
(let ((.def_323 (or .def_152 .def_322)))
(let ((.def_326 (and .def_323 .def_325)))
(let ((.def_320 (or .def_213 .def_319)))
(let ((.def_321 (not .def_320)))
(let ((.def_327 (or .def_321 .def_326)))
(let ((.def_337 (and .def_327 .def_336)))
(let ((.def_308 (and .def_165 .def_307)))
(let ((.def_338 (and .def_308 .def_337)))
(let ((.def_377 (and .def_338 .def_376)))
(let ((.def_178 (* 2.0 .def_123)))
(let ((.def_260 (* (- 1.0) .def_178)))
(let ((.def_261 (* b.delta__AT0 .def_260)))
(let ((.def_262 (* 50.0 .def_261)))
(let ((.def_266 (+ .def_186 .def_262)))
(let ((.def_267 (+ .def_184 .def_266)))
(let ((.def_268 (+ .def_189 .def_267)))
(let ((.def_271 (<= .def_268 0.0 )))
(let ((.def_278 (not .def_271)))
(let ((.def_279 (or .def_202 .def_278)))
(let ((.def_269 (<= 0.0 .def_268)))
(let ((.def_277 (or .def_213 .def_269)))
(let ((.def_280 (and .def_277 .def_279)))
(let ((.def_281 (or .def_236 .def_280)))
(let ((.def_273 (not .def_269)))
(let ((.def_274 (or .def_212 .def_273)))
(let ((.def_272 (or .def_203 .def_271)))
(let ((.def_275 (and .def_272 .def_274)))
(let ((.def_276 (or .def_246 .def_275)))
(let ((.def_282 (and .def_276 .def_281)))
(let ((.def_270 (and .def_212 .def_269)))
(let ((.def_283 (and .def_270 .def_282)))
(let ((.def_284 (and .def_257 .def_283)))
(let ((.def_179 (* b.delta__AT0 .def_178)))
(let ((.def_181 (* (- 50.0) .def_179)))
(let ((.def_191 (+ .def_186 .def_181)))
(let ((.def_192 (+ .def_184 .def_191)))
(let ((.def_193 (+ .def_189 .def_192)))
(let ((.def_210 (<= 0.0 .def_193)))
(let ((.def_211 (not .def_210)))
(let ((.def_239 (or .def_211 .def_212)))
(let ((.def_194 (<= .def_193 0.0 )))
(let ((.def_238 (or .def_194 .def_203)))
(let ((.def_240 (and .def_238 .def_239)))
(let ((.def_247 (or .def_240 .def_246)))
(let ((.def_195 (not .def_194)))
(let ((.def_224 (or .def_195 .def_202)))
(let ((.def_223 (or .def_210 .def_213)))
(let ((.def_225 (and .def_223 .def_224)))
(let ((.def_237 (or .def_225 .def_236)))
(let ((.def_248 (and .def_237 .def_247)))
(let ((.def_222 (and .def_194 .def_202)))
(let ((.def_249 (and .def_222 .def_248)))
(let ((.def_258 (and .def_249 .def_257)))
(let ((.def_285 (or .def_258 .def_284)))
(let ((.def_133 (* b.delta__AT0 .def_132)))
(let ((.def_134 (* 50.0 .def_133)))
(let ((.def_128 (* b.delta__AT0 .def_127)))
(let ((.def_130 (* 25.0 .def_128)))
(let ((.def_142 (+ .def_130 .def_134)))
(let ((.def_124 (* .def_83 .def_123)))
(let ((.def_126 (* 50.0 .def_124)))
(let ((.def_143 (+ .def_126 .def_142)))
(let ((.def_144 (+ .def_138 .def_143)))
(let ((.def_145 (+ .def_136 .def_144)))
(let ((.def_146 (+ .def_140 .def_145)))
(let ((.def_163 (<= .def_146 0.0 )))
(let ((.def_164 (not .def_163)))
(let ((.def_217 (or .def_164 .def_165)))
(let ((.def_147 (<= 0.0 .def_146)))
(let ((.def_216 (or .def_147 .def_152)))
(let ((.def_218 (and .def_216 .def_217)))
(let ((.def_214 (or .def_211 .def_213)))
(let ((.def_215 (not .def_214)))
(let ((.def_219 (or .def_215 .def_218)))
(let ((.def_148 (not .def_147)))
(let ((.def_207 (or .def_148 .def_151)))
(let ((.def_206 (or .def_163 .def_166)))
(let ((.def_208 (and .def_206 .def_207)))
(let ((.def_204 (or .def_195 .def_203)))
(let ((.def_205 (not .def_204)))
(let ((.def_209 (or .def_205 .def_208)))
(let ((.def_220 (and .def_209 .def_219)))
(let ((.def_177 (and .def_147 .def_151)))
(let ((.def_221 (and .def_177 .def_220)))
(let ((.def_286 (and .def_221 .def_285)))
(let ((.def_378 (or .def_286 .def_377)))
(let ((.def_106 (* b.delta__AT0 .def_105)))
(let ((.def_107 (* 200.0 .def_106)))
(let ((.def_102 (* .def_83 .def_101)))
(let ((.def_103 (* 200.0 .def_102)))
(let ((.def_113 (+ .def_103 .def_107)))
(let ((.def_98 (* .def_83 .def_97)))
(let ((.def_99 (* 100.0 .def_98)))
(let ((.def_114 (+ .def_99 .def_113)))
(let ((.def_93 (* .def_84 .def_92)))
(let ((.def_95 (* 200.0 .def_93)))
(let ((.def_115 (+ .def_95 .def_114)))
(let ((.def_85 (* b.delta__AT0 .def_84)))
(let ((.def_87 (* 2401.0 .def_85)))
(let ((.def_116 (+ .def_87 .def_115)))
(let ((.def_82 (* 100.0 .def_80)))
(let ((.def_117 (+ .def_82 .def_116)))
(let ((.def_109 (* 100.0 .def_65)))
(let ((.def_118 (+ .def_109 .def_117)))
(let ((.def_111 (* 100.0 b.x__AT0)))
(let ((.def_119 (+ .def_111 .def_118)))
(let ((.def_157 (<= .def_119 0.0 )))
(let ((.def_171 (not .def_157)))
(let ((.def_155 (<= .def_66 0.0 )))
(let ((.def_172 (or .def_155 .def_171)))
(let ((.def_67 (<= 0.0 .def_66)))
(let ((.def_169 (not .def_67)))
(let ((.def_120 (<= 0.0 .def_119)))
(let ((.def_170 (or .def_120 .def_169)))
(let ((.def_173 (and .def_170 .def_172)))
(let ((.def_167 (or .def_164 .def_166)))
(let ((.def_168 (not .def_167)))
(let ((.def_174 (or .def_168 .def_173)))
(let ((.def_159 (not .def_120)))
(let ((.def_160 (or .def_67 .def_159)))
(let ((.def_156 (not .def_155)))
(let ((.def_158 (or .def_156 .def_157)))
(let ((.def_161 (and .def_158 .def_160)))
(let ((.def_153 (or .def_148 .def_152)))
(let ((.def_154 (not .def_153)))
(let ((.def_162 (or .def_154 .def_161)))
(let ((.def_175 (and .def_162 .def_174)))
(let ((.def_121 (and .def_67 .def_120)))
(let ((.def_176 (and .def_121 .def_175)))
(let ((.def_379 (and .def_176 .def_378)))
(let ((.def_380 (and .def_74 .def_379)))
(let ((.def_75 (and .def_67 .def_74)))
(let ((.def_63 (or .def_60 .def_62)))
(let ((.def_53 (or .def_41 .def_43)))
(let ((.def_57 (or b.counter.3__AT0 .def_53)))
(let ((.def_54 (or b.counter.2__AT0 .def_53)))
(let ((.def_52 (or .def_43 .def_46)))
(let ((.def_55 (and .def_52 .def_54)))
(let ((.def_56 (or .def_49 .def_55)))
(let ((.def_58 (and .def_56 .def_57)))
(let ((.def_64 (and .def_58 .def_63)))
(let ((.def_76 (and .def_64 .def_75)))
(let ((.def_47 (and .def_44 .def_46)))
(let ((.def_50 (and .def_47 .def_49)))
(let ((.def_38 (= b.speed_y__AT0 1.0 )))
(let ((.def_35 (= b.speed_x__AT0 1.0 )))
(let ((.def_31 (= b.y__AT0 10.0 )))
(let ((.def_27 (= b.x__AT0 (- 9.0) )))
(let ((.def_21 (= b.time__AT0 0.0 )))
(let ((.def_23 (and .def_21 b.event_is_timed__AT0)))
(let ((.def_28 (and .def_23 .def_27)))
(let ((.def_32 (and .def_28 .def_31)))
(let ((.def_36 (and .def_32 .def_35)))
(let ((.def_39 (and .def_36 .def_38)))
(let ((.def_51 (and .def_39 .def_50)))
(let ((.def_77 (and .def_51 .def_76)))
(let ((.def_10 (and .def_6 .def_9)))
(let ((.def_16 (or .def_10 b.counter.3__AT1)))
(let ((.def_11 (or b.counter.2__AT1 .def_10)))
(let ((.def_7 (or .def_4 .def_6)))
(let ((.def_12 (and .def_7 .def_11)))
(let ((.def_15 (or .def_12 .def_14)))
(let ((.def_17 (and .def_15 .def_16)))
(let ((.def_18 (not .def_17)))
(let ((.def_78 (and .def_18 .def_77)))
(let ((.def_381 (and .def_78 .def_380)))
(let ((.def_575 (and .def_381 .def_574)))
(let ((.def_850 (and .def_575 .def_849)))
.def_850))))))))))))))))))))))))))))))))))))))))))))))))))))))))))))))))))))))))))))))))))))))))))))))))))))))))))))))))))))))))))))))))))))))))))))))))))))))))))))))))))))))))))))))))))))))))))))))))))))))))))))))))))))))))))))))))))))))))))))))))))))))))))))))))))))))))))))))))))))))))))))))))))))))))))))))))))))))))))))))))))))))))))))))))))))))))))))))))))))))))))))))))))))))))))))))))))))))))))))))))))))))))))))))))))))))))))))))))))))))))))))))))))))))))))))))))))))))))))))))))))))))))))))))))))))))))))))))))))))))))))))))))))))))))))))))))))))))))))))))))))))))))))))))))))))))))))))))))))))))))))))))))))))))))))))))))))))))))))))))))))))))))))))))))))))))))))))))))))))))))))))))))))))))))))))))))))))))))))))))))))))))))))
(check-sat)
(exit)
